(set-logic QF_S)
(declare-fun var0 () String)
(assert (str.in.re var0 (re.++ (re.+ (re.union (str.to.re "000") (str.to.re "1"))) (re.++ (re.+ (re.union (str.to.re "22") (str.to.re "333"))) (re.++ (re.union (re.+ (str.to.re "444")) (re.+ (str.to.re "55"))) (re.++ (re.* (re.union (str.to.re "66") (str.to.re "77"))) (re.++ (re.* (re.* (str.to.re "88"))) (re.++ (re.+ (re.* (str.to.re "99"))) (re.++ (re.+ (re.+ (str.to.re "aaa"))) (re.++ (re.+ (re.+ (str.to.re "bb"))) (re.++ (re.* (re.+ (str.to.re "cc"))) (re.++ (re.union (re.union (str.to.re "d") (str.to.re "e")) (re.union (str.to.re "ff") (str.to.re "ggg"))) (re.++ (re.* (re.* (str.to.re "h"))) (re.++ (re.union (re.+ (str.to.re "iii")) (re.+ (str.to.re "jjj"))) (re.++ (re.* (re.* (str.to.re "k"))) (re.++ (re.union (re.* (str.to.re "lll")) (re.* (str.to.re "mm"))) (re.++ (re.union (re.* (str.to.re "n")) (re.* (str.to.re "o"))) (re.++ (re.union (re.union (str.to.re "p") (str.to.re "qqq")) (re.union (str.to.re "rrr") (str.to.re "ss"))) (re.++ (re.* (re.* (str.to.re "tt"))) (re.++ (re.+ (re.* (str.to.re "uu"))) (re.++ (re.+ (re.+ (str.to.re "vvv"))) (re.++ (re.union (re.union (str.to.re "www") (str.to.re "xx")) (re.union (str.to.re "yy") (str.to.re "zz"))) (re.++ (re.union (re.+ (str.to.re "AA")) (re.+ (str.to.re "BB"))) (re.++ (re.union (re.* (str.to.re "C")) (re.* (str.to.re "DDD"))) (re.++ (re.* (re.* (str.to.re "EE"))) (re.++ (re.union (re.+ (str.to.re "FF")) (re.+ (str.to.re "GGG"))) (re.++ (re.* (re.+ (str.to.re "H"))) (re.++ (re.union (re.* (str.to.re "II")) (re.* (str.to.re "J"))) (re.* (re.union (str.to.re "K") (str.to.re "L")))))))))))))))))))))))))))))))
(check-sat)